33 33
23
3 3 7 0
3 4 21 0
3 5 18 28
3 6 27 27
3 7 21 18
3 8 21 25
3 9 24 0
3 10 27 0
3 13 18 15
3 14 21 4
3 15 18 0
3 17 27 10
3 24 24 9
3 30 7 3
3 33 30 0
4 3 10 30
4 4 10 0
4 6 14 0
4 10 14 6
4 12 10 18
4 14 10 4
4 17 14 16
7 33 0 0
